\ This file has been generated by DOcplex
\ ENCODING=ISO-8859-1
\Problem name: random_problem.lp

Minimize
 obj: 4 x0 - 6 x1 + 8 x2 + 4 x3 + 2 x4 - 7 x5 + 3 x6 + 7 x7 + 7 x8 - x9 + 6 x11
      + 2 x12 + 5 x13 - 8 x14 - 7 x16 - 10 x17 - 2 x18 - 4 x19 - 3 x20 + 5 x21
      - 10 x22 + 10 x23 - 3 x24 + 9 x25 + 4 x26 - 2 x27 - 2 x28 - 8 x29 + 3 x30
      - 5 x31 - 3 x32 + 7 x33 - 4 x34 - 4 x35 - 8 x36 - 9 x37 + x38 + 10 x39
      + 3 x40 - 3 x41 - 10 x42 - 4 x43 - 8 x44 - 2 x45 - 9 x46 + x47 + 8 x48
      + 5 x49 - 4 x51 - 7 x52 + 10 x53 - 5 x54 + [ - 4 x0*x6 - 10 x0*x8
      - 18 x0*x19 + 2 x0*x20 - 2 x0*x23 - 18 x0*x26 - 10 x0*x30 + 6 x0*x33
      - 20 x0*x37 - 4 x0*x48 - 2 x1*x4 - 2 x1*x14 - 4 x1*x18 + 18 x1*x26
      + 6 x1*x31 + 6 x1*x33 + 2 x1*x36 + 12 x1*x39 + 12 x1*x41 + 10 x1*x44
      + 14 x2*x5 + 2 x2*x13 + 14 x2*x19 - 2 x2*x23 + 14 x2*x24 - 20 x2*x30
      - 8 x2*x35 - 10 x2*x37 + 18 x2*x41 + 2 x2*x43 + 8 x3*x4 + 20 x3*x7
      - 18 x3*x10 - 6 x3*x13 + 18 x3*x15 + 14 x3*x32 - 10 x3*x38 - 2 x3*x44
      - 2 x3*x51 - 12 x3*x52 + 14 x4*x7 + 10 x4*x10 - 14 x4*x22 + 4 x4*x27
      - 18 x4*x34 + 6 x4*x44 + 6 x4*x46 - 10 x4*x51 - 20 x5*x6 - 10 x5*x13
      + 18 x5*x24 + 4 x5*x26 + 16 x5*x27 + 18 x5*x35 - 6 x5*x41 - 4 x5*x44
      + 14 x5*x47 + 6 x6*x8 - 4 x6*x9 - 20 x6*x17 + 2 x6*x29 - 20 x6*x30
      - 18 x6*x41 - 6 x6*x45 + 2 x6*x47 + 14 x7*x19 + 4 x7*x22 - 4 x7*x27
      - 4 x7*x30 + 12 x7*x36 - 16 x7*x37 - 8 x7*x42 + 18 x7*x43 - 20 x8*x12
      - 10 x8*x15 + 8 x8*x24 - 18 x8*x33 - 16 x8*x34 + 10 x8*x40 - 4 x8*x51
      - 8 x8*x54 - 18 x9*x10 + 2 x9*x11 + 6 x9*x12 - 6 x9*x14 - 10 x9*x26
      + 4 x9*x40 + 12 x9*x47 - 2 x9*x49 - 14 x9*x53 + 4 x10*x21 + 6 x10*x31
      + 8 x10*x38 + 12 x10*x39 + 14 x10*x41 + 20 x10*x43 - 14 x10*x54
      + 16 x11*x12 - 4 x11*x14 - 10 x11*x18 - 10 x11*x31 + 14 x11*x32
      - 18 x11*x33 - 8 x11*x42 - 6 x11*x43 - 2 x11*x47 - 20 x12*x14 - 14 x12*x15
      + 2 x12*x17 + 16 x12*x20 + 4 x12*x29 - 4 x12*x33 + 18 x12*x42 - 16 x13*x21
      + 2 x13*x27 - 2 x13*x34 + 6 x13*x40 + 2 x13*x49 - 2 x13*x50 - 4 x13*x51
      - 10 x14*x20 + 16 x14*x21 - 10 x14*x29 - 14 x14*x35 - 6 x14*x50
      + 16 x14*x52 - 4 x15*x18 + 14 x15*x26 - 2 x15*x28 + 8 x15*x37 + 12 x15*x43
      - 20 x15*x50 - 12 x15*x51 - 6 x16*x17 + 20 x16*x19 + 16 x16*x31
      - 10 x16*x32 + 6 x16*x37 + 2 x16*x38 + 2 x16*x40 + 8 x16*x42 - 14 x16*x43
      + 18 x16*x46 + 2 x17*x19 - 8 x17*x29 - 18 x17*x30 + 12 x17*x32 - 8 x17*x33
      + 6 x17*x48 + 8 x17*x52 - 20 x18*x27 - 8 x18*x36 - 8 x18*x41 + 16 x18*x43
      + 4 x18*x46 - 14 x18*x50 - 20 x18*x51 - 2 x19*x24 + 6 x19*x35 - 16 x19*x46
      - 6 x19*x49 + 12 x19*x53 + 16 x20*x21 - 2 x20*x22 + 18 x20*x31
      + 20 x20*x40 + 20 x20*x46 - 10 x20*x50 - 8 x20*x53 + 8 x21*x23
      + 20 x21*x28 + 20 x21*x35 + 10 x21*x39 - 4 x21*x43 + 20 x21*x49
      - 12 x22*x26 + 4 x22*x29 - 14 x22*x38 + 14 x22*x46 - 12 x22*x47
      - 6 x22*x50 + 4 x22*x53 + 18 x23*x27 + 12 x23*x45 + 10 x23*x47
      - 16 x23*x48 + 16 x23*x51 - 10 x23*x52 + 12 x23*x54 - 12 x24*x26
      - 12 x24*x32 - 6 x24*x34 + 10 x24*x35 + 6 x24*x41 - 8 x24*x47 - 16 x25*x30
      - 20 x25*x31 + 4 x25*x33 + 20 x25*x36 - 8 x25*x38 - 10 x25*x40 - 8 x25*x42
      - 6 x25*x45 + 16 x25*x48 + 18 x25*x52 + 16 x26*x34 - 20 x26*x51
      + 2 x26*x54 - 4 x27*x28 + 4 x27*x32 - 20 x27*x42 + 18 x27*x53 + 10 x28*x29
      + 18 x28*x30 + 18 x28*x39 + 16 x28*x41 + 10 x28*x48 + 10 x28*x49
      + 14 x28*x52 + 8 x29*x36 - 8 x29*x39 - 12 x29*x40 + 6 x29*x46 + 18 x30*x38
      - 20 x30*x51 + 2 x30*x54 - 16 x31*x32 + 20 x31*x38 - 14 x31*x40
      - 18 x31*x44 - 14 x32*x33 - 16 x32*x46 - 4 x32*x53 + 18 x33*x35
      + 20 x33*x48 - 16 x34*x35 + 8 x34*x36 + 12 x34*x37 + 14 x34*x39
      + 16 x34*x50 + 16 x35*x43 - 16 x35*x54 - 2 x36*x38 + 20 x36*x39
      + 16 x36*x52 - 18 x36*x53 + 2 x37*x44 + 14 x37*x49 + 4 x37*x52
      - 18 x37*x53 + 16 x38*x46 + 18 x38*x52 + 10 x39*x45 - 18 x39*x49
      - 8 x39*x53 + 8 x40*x50 - 18 x40*x54 - 20 x41*x44 - 16 x41*x47 - 2 x42*x45
      - 12 x42*x48 - 2 x42*x50 - 12 x42*x51 - 16 x43*x45 + 20 x44*x45
      + 6 x44*x47 - 4 x44*x54 - 20 x45*x46 - 12 x45*x49 - 8 x45*x53 - 18 x47*x54
      - 6 x48*x49 - 12 x48*x50 + 12 x48*x54 + 2 x49*x52 ]/2
Subject To
 c0: - 2 x5 - x24 + 2 x28 + 2 x31 - x33 - 2 x37 - x39 - 2 x44 + x45 + 2 x48 = 
     -1
 c1: x2 + x15 + x16 - 2 x20 - 2 x25 + x27 - 2 x38 + 2 x41 - 2 x50 + x54 = 0
 c2: 2 x6 - 2 x12 - 2 x15 + 2 x19 - 2 x26 - 2 x29 - x31 - x39 + x40 - x52 = 1
 c3: x3 + 2 x5 + 2 x6 + x10 + x12 + x16 + 2 x23 + 2 x27 - x30 + x41 = 1
 c4: x1 - 2 x12 + x13 + x17 - 2 x19 + 2 x21 + x30 + x44 - x45 - x53 = 1
 c5: - x8 - 2 x12 - 2 x14 + 2 x27 + 2 x31 + 2 x39 + x42 - x43 - 2 x49 - x52 = 0
 c6: 2 x2 - x4 + 2 x5 + x24 + x32 + 2 x36 - 2 x42 + 2 x46 - 2 x51 - x54 = -2
 c7: - x10 - x14 + x17 - x18 + x25 + x31 + 2 x42 - 2 x45 - x47 + 2 x53 = 0
 c8: 2 x2 - 2 x8 + 2 x13 - x20 + x25 - 2 x28 - x30 + 2 x32 + x44 - x53 = 0
 c9: - x0 - 2 x2 - x14 - 2 x15 + x30 - x32 - 2 x35 - 2 x43 + x48 + x49 = 1
 c10: - x5 - 2 x8 + 2 x10 + x11 - x15 + 2 x24 + x32 - x33 + 2 x37 + x50 = 1

Bounds
 0 <= x0 <= 1
 0 <= x1 <= 1
 0 <= x2 <= 1
 0 <= x3 <= 1
 0 <= x4 <= 1
 0 <= x5 <= 1
 0 <= x6 <= 1
 0 <= x7 <= 1
 0 <= x8 <= 1
 0 <= x9 <= 1
 0 <= x10 <= 1
 0 <= x11 <= 1
 0 <= x12 <= 1
 0 <= x13 <= 1
 0 <= x14 <= 1
 0 <= x15 <= 1
 0 <= x16 <= 1
 0 <= x17 <= 1
 0 <= x18 <= 1
 0 <= x19 <= 1
 0 <= x20 <= 1
 0 <= x21 <= 1
 0 <= x22 <= 1
 0 <= x23 <= 1
 0 <= x24 <= 1
 0 <= x25 <= 1
 0 <= x26 <= 1
 0 <= x27 <= 1
 0 <= x28 <= 1
 0 <= x29 <= 1
 0 <= x30 <= 1
 0 <= x31 <= 1
 0 <= x32 <= 1
 0 <= x33 <= 1
 0 <= x34 <= 1
 0 <= x35 <= 1
 0 <= x36 <= 1
 0 <= x37 <= 1
 0 <= x38 <= 1
 0 <= x39 <= 1
 0 <= x40 <= 1
 0 <= x41 <= 1
 0 <= x42 <= 1
 0 <= x43 <= 1
 0 <= x44 <= 1
 0 <= x45 <= 1
 0 <= x46 <= 1
 0 <= x47 <= 1
 0 <= x48 <= 1
 0 <= x49 <= 1
 0 <= x50 <= 1
 0 <= x51 <= 1
 0 <= x52 <= 1
 0 <= x53 <= 1
 0 <= x54 <= 1

Binaries
 x0 x1 x2 x3 x4 x5 x6 x7 x8 x9 x10 x11 x12 x13 x14 x15 x16 x17 x18 x19 x20 x21
 x22 x23 x24 x25 x26 x27 x28 x29 x30 x31 x32 x33 x34 x35 x36 x37 x38 x39 x40 x41
 x42 x43 x44 x45 x46 x47 x48 x49 x50 x51 x52 x53 x54
End
